p knf 162 250
1 2 3 4 5 6 7 8 9 0
10 11 12 13 14 15 16 17 18 0
19 20 21 22 23 24 25 26 27 0
28 29 30 31 32 33 34 35 36 0
37 38 39 40 41 42 43 44 45 0
46 47 48 49 50 51 52 53 54 0
55 56 57 58 59 60 61 62 63 0
64 65 66 67 68 69 70 71 72 0
73 74 75 76 77 78 79 80 81 0
k 8 -1 -10 -19 -28 -37 -46 -55 -64 -73 0
k 8 -2 -11 -20 -29 -38 -47 -56 -65 -74 0
k 8 -3 -12 -21 -30 -39 -48 -57 -66 -75 0
k 8 -4 -13 -22 -31 -40 -49 -58 -67 -76 0
k 8 -5 -14 -23 -32 -41 -50 -59 -68 -77 0
k 8 -6 -15 -24 -33 -42 -51 -60 -69 -78 0
k 8 -7 -16 -25 -34 -43 -52 -61 -70 -79 0
k 8 -8 -17 -26 -35 -44 -53 -62 -71 -80 0
k 8 -9 -18 -27 -36 -45 -54 -63 -72 -81 0
82 0
83 -84 0
84 -85 0
85 -86 0
86 -87 0
87 -88 0
88 -89 0
89 -90 0
91 0
92 -93 0
93 -94 0
94 -95 0
95 -96 0
96 -97 0
97 -98 0
98 -99 0
100 0
101 -102 0
102 -103 0
103 -104 0
104 -105 0
105 -106 0
106 -107 0
107 -108 0
109 0
110 -111 0
111 -112 0
112 -113 0
113 -114 0
114 -115 0
115 -116 0
116 -117 0
118 0
119 -120 0
120 -121 0
121 -122 0
122 -123 0
123 -124 0
124 -125 0
125 -126 0
127 0
128 -129 0
129 -130 0
130 -131 0
131 -132 0
132 -133 0
133 -134 0
134 -135 0
136 0
137 -138 0
138 -139 0
139 -140 0
140 -141 0
141 -142 0
142 -143 0
143 -144 0
145 0
146 -147 0
147 -148 0
148 -149 0
149 -150 0
150 -151 0
151 -152 0
152 -153 0
154 0
155 -156 0
156 -157 0
157 -158 0
158 -159 0
159 -160 0
160 -161 0
161 -162 0
-1 -83 0
-2  83 0
-2 -84 0
-3  84 0
-3 -85 0
-4  85 0
-4 -86 0
-5  86 0
-5 -87 0
-6  87 0
-6 -88 0
-7  88 0
-7 -89 0
-8  89 0
-8 -90 0
-9  90 0
-10 -92 0
-11  92 0
-11 -93 0
-12  93 0
-12 -94 0
-13  94 0
-13 -95 0
-14  95 0
-14 -96 0
-15  96 0
-15 -97 0
-16  97 0
-16 -98 0
-17  98 0
-17 -99 0
-18  99 0
-19 -101 0
-20  101 0
-20 -102 0
-21  102 0
-21 -103 0
-22  103 0
-22 -104 0
-23  104 0
-23 -105 0
-24  105 0
-24 -106 0
-25  106 0
-25 -107 0
-26  107 0
-26 -108 0
-27  108 0
-28 -110 0
-29  110 0
-29 -111 0
-30  111 0
-30 -112 0
-31  112 0
-31 -113 0
-32  113 0
-32 -114 0
-33  114 0
-33 -115 0
-34  115 0
-34 -116 0
-35  116 0
-35 -117 0
-36  117 0
-37 -119 0
-38  119 0
-38 -120 0
-39  120 0
-39 -121 0
-40  121 0
-40 -122 0
-41  122 0
-41 -123 0
-42  123 0
-42 -124 0
-43  124 0
-43 -125 0
-44  125 0
-44 -126 0
-45  126 0
-46 -128 0
-47  128 0
-47 -129 0
-48  129 0
-48 -130 0
-49  130 0
-49 -131 0
-50  131 0
-50 -132 0
-51  132 0
-51 -133 0
-52  133 0
-52 -134 0
-53  134 0
-53 -135 0
-54  135 0
-55 -137 0
-56  137 0
-56 -138 0
-57  138 0
-57 -139 0
-58  139 0
-58 -140 0
-59  140 0
-59 -141 0
-60  141 0
-60 -142 0
-61  142 0
-61 -143 0
-62  143 0
-62 -144 0
-63  144 0
-64 -146 0
-65  146 0
-65 -147 0
-66  147 0
-66 -148 0
-67  148 0
-67 -149 0
-68  149 0
-68 -150 0
-69  150 0
-69 -151 0
-70  151 0
-70 -152 0
-71  152 0
-71 -153 0
-72  153 0
-73 -155 0
-74  155 0
-74 -156 0
-75  156 0
-75 -157 0
-76  157 0
-76 -158 0
-77  158 0
-77 -159 0
-78  159 0
-78 -160 0
-79  160 0
-79 -161 0
-80  161 0
-80 -162 0
-81  162 0
k 15 82 83 84 85 86 87 88 89 90 109 110 111 112 113 114 115 116 117 136 137 138 139 140 141 142 143 144 0
k 15 91 92 93 94 95 96 97 98 99 118 119 120 121 122 123 124 125 126 145 146 147 148 149 150 151 152 153 0
k 15 100 101 102 103 104 105 106 107 108 127 128 129 130 131 132 133 134 135 154 155 156 157 158 159 160 161 162 0
k 12 -82 -83 -84 -85 -86 -87 -88 -89 -90 -109 -110 -111 -112 -113 -114 -115 -116 -117 -136 -137 -138 -139 -140 -141 -142 -143 -144 0
k 12 -91 -92 -93 -94 -95 -96 -97 -98 -99 -118 -119 -120 -121 -122 -123 -124 -125 -126 -145 -146 -147 -148 -149 -150 -151 -152 -153 0
k 12 -100 -101 -102 -103 -104 -105 -106 -107 -108 -127 -128 -129 -130 -131 -132 -133 -134 -135 -154 -155 -156 -157 -158 -159 -160 -161 -162 0
k 15 82 83 84 85 86 87 88 89 90 91 92 93 94 95 96 97 98 99 100 101 102 103 104 105 106 107 108 0
k 15 109 110 111 112 113 114 115 116 117 118 119 120 121 122 123 124 125 126 127 128 129 130 131 132 133 134 135 0
k 15 136 137 138 139 140 141 142 143 144 145 146 147 148 149 150 151 152 153 154 155 156 157 158 159 160 161 162 0
k 12 -82 -83 -84 -85 -86 -87 -88 -89 -90 -91 -92 -93 -94 -95 -96 -97 -98 -99 -100 -101 -102 -103 -104 -105 -106 -107 -108 0
k 12 -109 -110 -111 -112 -113 -114 -115 -116 -117 -118 -119 -120 -121 -122 -123 -124 -125 -126 -127 -128 -129 -130 -131 -132 -133 -134 -135 0
k 12 -136 -137 -138 -139 -140 -141 -142 -143 -144 -145 -146 -147 -148 -149 -150 -151 -152 -153 -154 -155 -156 -157 -158 -159 -160 -161 -162 0
k 15 82 83 84 85 86 87 88 89 90 118 119 120 121 122 123 124 125 126 154 155 156 157 158 159 160 161 162 0
k 12 -82 -83 -84 -85 -86 -87 -88 -89 -90 -118 -119 -120 -121 -122 -123 -124 -125 -126 -154 -155 -156 -157 -158 -159 -160 -161 -162 0
k 15 100 101 102 103 104 105 106 107 108 118 119 120 121 122 123 124 125 126 136 137 138 139 140 141 142 143 144 0
k 12 -100 -101 -102 -103 -104 -105 -106 -107 -108 -118 -119 -120 -121 -122 -123 -124 -125 -126 -136 -137 -138 -139 -140 -141 -142 -143 -144 0
